20 5 5 5 1500
3.0 0.42 0.0 0.5 1.0 0.36 2.0 0.38 4.0 0.47
4.0 0.2 2.0 0.47 0.0 0.29 1.0 0.31 3.0 0.17
4.0 0.18 2.0 0.47 1.0 0.32 0.0 0.45 3.0 0.22
3.0 0.34 2.0 0.33 0.0 0.44 1.0 0.29 4.0 0.47
4.0 0.15 0.0 0.27 2.0 0.32 1.0 0.33 3.0 0.33
3.0 0.37 1.0 0.35 0.0 0.35 4.0 0.23 2.0 0.18
0.0 0.28 1.0 0.44 2.0 0.42 3.0 0.24 4.0 0.32
0.0 0.31 3.0 0.36 1.0 0.45 4.0 0.23 2.0 0.22
0.0 0.38 3.0 0.22 2.0 0.37 1.0 0.15 4.0 0.27
0.0 0.36 2.0 0.17 3.0 0.22 4.0 0.25 1.0 0.19
4.0 0.19 1.0 0.46 3.0 0.27 0.0 0.45 2.0 0.48
4.0 0.27 1.0 0.22 0.0 0.18 3.0 0.28 2.0 0.3
2.0 0.29 1.0 0.38 0.0 0.19 4.0 0.25 3.0 0.16
3.0 0.27 2.0 0.15 0.0 0.3 1.0 0.24 4.0 0.43
2.0 0.39 1.0 0.18 3.0 0.35 4.0 0.2 0.0 0.2
2.0 0.42 0.0 0.36 1.0 0.25 3.0 0.26 4.0 0.39
3.0 0.21 2.0 0.38 0.0 0.5 1.0 0.26 4.0 0.46
3.0 0.34 0.0 0.45 4.0 0.17 2.0 0.3 1.0 0.2
2.0 0.34 0.0 0.44 3.0 0.38 1.0 0.44 4.0 0.38
4.0 0.31 0.0 0.28 1.0 0.19 3.0 0.36 2.0 0.3
